/*********************************************
 * OPL 22.1.0.0 Data
 * Author: Admin
 * Creation Date: 21-Oct-2022 at 2:51:02 AM
 *********************************************/
nbGuesses = 5;
guess = [[1,1,2,3],[3,4,3,5],[6,3,6,6],[5,6,6,1],[2,6,5,6]];
nbCorrectAwards = [0,0,1,1,1];
nbIncorrectAwards = [1,1,1,2,1];
